c File: instances/20_0.15_1.col
c
c Description: Random graph of size 20 vertices and P(0.15000000000000002) of edges between any two vertices.
p col 20 190
e 2 9
e 2 14
e 2 16
e 3 7
e 3 8
e 3 14
e 4 5
e 5 6
e 5 12
e 5 13
e 5 17
e 5 20
e 6 17
e 6 20
e 9 12
e 9 16
e 9 20
e 10 13
e 10 17
e 11 13
e 14 20
e 15 19
e 16 20
e 19 20